NAME : Terassikierros
COMMENT : O-Mopsi
TYPE : TSP
DIMENSION : 19
EDGE_WEIGHT_TYPE : HVS
NODE_COORD_SECTION
1 29.76223451842486 62.60109654622463
2 29.76442764261469 62.60102588335332
3 29.766244000525266 62.59903242929765
4 29.765137 62.599536
5 29.760546487658985 62.60265803512653
6 29.76250592438339 62.59642663095896
7 29.762648668116 62.601240059592
8 29.77340792642917 62.60142576108547
9 29.769087727515 62.603788660106
10 29.73792273353206 62.59087844709325
11 29.761681815951 62.601527558762
12 29.771403730304 62.59917325069
13 29.76378324211009 62.6040301287826
14 29.76238053115117 62.60247230828232
15 29.7629875483492 62.59875443848046
16 29.74533753005312 62.59863458386622
17 29.763691208838 62.597279108928
18 29.7612470468041 62.60111583461964
19 29.763462131606502 62.59928345615384
EOF